
    num_iter = 1000000
    num_cg_steps = 100
    conv_window = 5

    write_xyz = true
    write_u_matrices = true
    write_hr = true

    wannier_plot = true

# This part was generated automatically by VASP
num_bands = 8
num_wann = 8
begin unit_cell_cart
    -1.7803726    -1.7803726     0.0000000
    -1.7803726     0.0000000    -1.7803726
    -0.0000000    -1.7803726    -1.7803726
end unit_cell_cart
begin atoms_cart
C       -1.7803726    -1.7803726    -1.7803726
C       -0.8901863    -0.8901863    -0.8901863
end atoms_cart
mp_grid =    16    16    16
begin kpoints
      0.000000000000      0.000000000000      0.000000000000
      0.062500000000      0.000000000000      0.000000000000
      0.125000000000      0.000000000000      0.000000000000
      0.187500000000      0.000000000000      0.000000000000
      0.250000000000      0.000000000000      0.000000000000
      0.312500000000      0.000000000000      0.000000000000
      0.375000000000      0.000000000000      0.000000000000
      0.437500000000      0.000000000000      0.000000000000
      0.500000000000      0.000000000000      0.000000000000
     -0.437500000000      0.000000000000      0.000000000000
     -0.375000000000      0.000000000000      0.000000000000
     -0.312500000000      0.000000000000      0.000000000000
     -0.250000000000      0.000000000000      0.000000000000
     -0.187500000000      0.000000000000      0.000000000000
     -0.125000000000      0.000000000000      0.000000000000
     -0.062500000000      0.000000000000      0.000000000000
      0.000000000000      0.062500000000      0.000000000000
      0.062500000000      0.062500000000      0.000000000000
      0.125000000000      0.062500000000      0.000000000000
      0.187500000000      0.062500000000      0.000000000000
      0.250000000000      0.062500000000      0.000000000000
      0.312500000000      0.062500000000      0.000000000000
      0.375000000000      0.062500000000      0.000000000000
      0.437500000000      0.062500000000      0.000000000000
      0.500000000000      0.062500000000      0.000000000000
     -0.437500000000      0.062500000000      0.000000000000
     -0.375000000000      0.062500000000      0.000000000000
     -0.312500000000      0.062500000000      0.000000000000
     -0.250000000000      0.062500000000      0.000000000000
     -0.187500000000      0.062500000000      0.000000000000
     -0.125000000000      0.062500000000      0.000000000000
     -0.062500000000      0.062500000000      0.000000000000
      0.000000000000      0.125000000000      0.000000000000
      0.062500000000      0.125000000000      0.000000000000
      0.125000000000      0.125000000000      0.000000000000
      0.187500000000      0.125000000000      0.000000000000
      0.250000000000      0.125000000000      0.000000000000
      0.312500000000      0.125000000000      0.000000000000
      0.375000000000      0.125000000000      0.000000000000
      0.437500000000      0.125000000000      0.000000000000
      0.500000000000      0.125000000000      0.000000000000
     -0.437500000000      0.125000000000      0.000000000000
     -0.375000000000      0.125000000000      0.000000000000
     -0.312500000000      0.125000000000      0.000000000000
     -0.250000000000      0.125000000000      0.000000000000
     -0.187500000000      0.125000000000      0.000000000000
     -0.125000000000      0.125000000000      0.000000000000
     -0.062500000000      0.125000000000      0.000000000000
      0.000000000000      0.187500000000      0.000000000000
      0.062500000000      0.187500000000      0.000000000000
      0.125000000000      0.187500000000      0.000000000000
      0.187500000000      0.187500000000      0.000000000000
      0.250000000000      0.187500000000      0.000000000000
      0.312500000000      0.187500000000      0.000000000000
      0.375000000000      0.187500000000      0.000000000000
      0.437500000000      0.187500000000      0.000000000000
      0.500000000000      0.187500000000      0.000000000000
     -0.437500000000      0.187500000000      0.000000000000
     -0.375000000000      0.187500000000      0.000000000000
     -0.312500000000      0.187500000000      0.000000000000
     -0.250000000000      0.187500000000      0.000000000000
     -0.187500000000      0.187500000000      0.000000000000
     -0.125000000000      0.187500000000      0.000000000000
     -0.062500000000      0.187500000000      0.000000000000
      0.000000000000      0.250000000000      0.000000000000
      0.062500000000      0.250000000000      0.000000000000
      0.125000000000      0.250000000000      0.000000000000
      0.187500000000      0.250000000000      0.000000000000
      0.250000000000      0.250000000000      0.000000000000
      0.312500000000      0.250000000000      0.000000000000
      0.375000000000      0.250000000000      0.000000000000
      0.437500000000      0.250000000000      0.000000000000
      0.500000000000      0.250000000000      0.000000000000
     -0.437500000000      0.250000000000      0.000000000000
     -0.375000000000      0.250000000000      0.000000000000
     -0.312500000000      0.250000000000      0.000000000000
     -0.250000000000      0.250000000000      0.000000000000
     -0.187500000000      0.250000000000      0.000000000000
     -0.125000000000      0.250000000000      0.000000000000
     -0.062500000000      0.250000000000      0.000000000000
      0.000000000000      0.312500000000      0.000000000000
      0.062500000000      0.312500000000      0.000000000000
      0.125000000000      0.312500000000      0.000000000000
      0.187500000000      0.312500000000      0.000000000000
      0.250000000000      0.312500000000      0.000000000000
      0.312500000000      0.312500000000      0.000000000000
      0.375000000000      0.312500000000      0.000000000000
      0.437500000000      0.312500000000      0.000000000000
      0.500000000000      0.312500000000      0.000000000000
     -0.437500000000      0.312500000000      0.000000000000
     -0.375000000000      0.312500000000      0.000000000000
     -0.312500000000      0.312500000000      0.000000000000
     -0.250000000000      0.312500000000      0.000000000000
     -0.187500000000      0.312500000000      0.000000000000
     -0.125000000000      0.312500000000      0.000000000000
     -0.062500000000      0.312500000000      0.000000000000
      0.000000000000      0.375000000000      0.000000000000
      0.062500000000      0.375000000000      0.000000000000
      0.125000000000      0.375000000000      0.000000000000
      0.187500000000      0.375000000000      0.000000000000
      0.250000000000      0.375000000000      0.000000000000
      0.312500000000      0.375000000000      0.000000000000
      0.375000000000      0.375000000000      0.000000000000
      0.437500000000      0.375000000000      0.000000000000
      0.500000000000      0.375000000000      0.000000000000
     -0.437500000000      0.375000000000      0.000000000000
     -0.375000000000      0.375000000000      0.000000000000
     -0.312500000000      0.375000000000      0.000000000000
     -0.250000000000      0.375000000000      0.000000000000
     -0.187500000000      0.375000000000      0.000000000000
     -0.125000000000      0.375000000000      0.000000000000
     -0.062500000000      0.375000000000      0.000000000000
      0.000000000000      0.437500000000      0.000000000000
      0.062500000000      0.437500000000      0.000000000000
      0.125000000000      0.437500000000      0.000000000000
      0.187500000000      0.437500000000      0.000000000000
      0.250000000000      0.437500000000      0.000000000000
      0.312500000000      0.437500000000      0.000000000000
      0.375000000000      0.437500000000      0.000000000000
      0.437500000000      0.437500000000      0.000000000000
      0.500000000000      0.437500000000      0.000000000000
     -0.437500000000      0.437500000000      0.000000000000
     -0.375000000000      0.437500000000      0.000000000000
     -0.312500000000      0.437500000000      0.000000000000
     -0.250000000000      0.437500000000      0.000000000000
     -0.187500000000      0.437500000000      0.000000000000
     -0.125000000000      0.437500000000      0.000000000000
     -0.062500000000      0.437500000000      0.000000000000
      0.000000000000      0.500000000000      0.000000000000
      0.062500000000      0.500000000000      0.000000000000
      0.125000000000      0.500000000000      0.000000000000
      0.187500000000      0.500000000000      0.000000000000
      0.250000000000      0.500000000000      0.000000000000
      0.312500000000      0.500000000000      0.000000000000
      0.375000000000      0.500000000000      0.000000000000
      0.437500000000      0.500000000000      0.000000000000
      0.500000000000      0.500000000000      0.000000000000
     -0.437500000000      0.500000000000      0.000000000000
     -0.375000000000      0.500000000000      0.000000000000
     -0.312500000000      0.500000000000      0.000000000000
     -0.250000000000      0.500000000000      0.000000000000
     -0.187500000000      0.500000000000      0.000000000000
     -0.125000000000      0.500000000000      0.000000000000
     -0.062500000000      0.500000000000      0.000000000000
      0.000000000000     -0.437500000000      0.000000000000
      0.062500000000     -0.437500000000      0.000000000000
      0.125000000000     -0.437500000000      0.000000000000
      0.187500000000     -0.437500000000      0.000000000000
      0.250000000000     -0.437500000000      0.000000000000
      0.312500000000     -0.437500000000      0.000000000000
      0.375000000000     -0.437500000000      0.000000000000
      0.437500000000     -0.437500000000      0.000000000000
      0.500000000000     -0.437500000000      0.000000000000
     -0.437500000000     -0.437500000000      0.000000000000
     -0.375000000000     -0.437500000000      0.000000000000
     -0.312500000000     -0.437500000000      0.000000000000
     -0.250000000000     -0.437500000000      0.000000000000
     -0.187500000000     -0.437500000000      0.000000000000
     -0.125000000000     -0.437500000000      0.000000000000
     -0.062500000000     -0.437500000000      0.000000000000
      0.000000000000     -0.375000000000      0.000000000000
      0.062500000000     -0.375000000000      0.000000000000
      0.125000000000     -0.375000000000      0.000000000000
      0.187500000000     -0.375000000000      0.000000000000
      0.250000000000     -0.375000000000      0.000000000000
      0.312500000000     -0.375000000000      0.000000000000
      0.375000000000     -0.375000000000      0.000000000000
      0.437500000000     -0.375000000000      0.000000000000
      0.500000000000     -0.375000000000      0.000000000000
     -0.437500000000     -0.375000000000      0.000000000000
     -0.375000000000     -0.375000000000      0.000000000000
     -0.312500000000     -0.375000000000      0.000000000000
     -0.250000000000     -0.375000000000      0.000000000000
     -0.187500000000     -0.375000000000      0.000000000000
     -0.125000000000     -0.375000000000      0.000000000000
     -0.062500000000     -0.375000000000      0.000000000000
      0.000000000000     -0.312500000000      0.000000000000
      0.062500000000     -0.312500000000      0.000000000000
      0.125000000000     -0.312500000000      0.000000000000
      0.187500000000     -0.312500000000      0.000000000000
      0.250000000000     -0.312500000000      0.000000000000
      0.312500000000     -0.312500000000      0.000000000000
      0.375000000000     -0.312500000000      0.000000000000
      0.437500000000     -0.312500000000      0.000000000000
      0.500000000000     -0.312500000000      0.000000000000
     -0.437500000000     -0.312500000000      0.000000000000
     -0.375000000000     -0.312500000000      0.000000000000
     -0.312500000000     -0.312500000000      0.000000000000
     -0.250000000000     -0.312500000000      0.000000000000
     -0.187500000000     -0.312500000000      0.000000000000
     -0.125000000000     -0.312500000000      0.000000000000
     -0.062500000000     -0.312500000000      0.000000000000
      0.000000000000     -0.250000000000      0.000000000000
      0.062500000000     -0.250000000000      0.000000000000
      0.125000000000     -0.250000000000      0.000000000000
      0.187500000000     -0.250000000000      0.000000000000
      0.250000000000     -0.250000000000      0.000000000000
      0.312500000000     -0.250000000000      0.000000000000
      0.375000000000     -0.250000000000      0.000000000000
      0.437500000000     -0.250000000000      0.000000000000
      0.500000000000     -0.250000000000      0.000000000000
     -0.437500000000     -0.250000000000      0.000000000000
     -0.375000000000     -0.250000000000      0.000000000000
     -0.312500000000     -0.250000000000      0.000000000000
     -0.250000000000     -0.250000000000      0.000000000000
     -0.187500000000     -0.250000000000      0.000000000000
     -0.125000000000     -0.250000000000      0.000000000000
     -0.062500000000     -0.250000000000      0.000000000000
      0.000000000000     -0.187500000000      0.000000000000
      0.062500000000     -0.187500000000      0.000000000000
      0.125000000000     -0.187500000000      0.000000000000
      0.187500000000     -0.187500000000      0.000000000000
      0.250000000000     -0.187500000000      0.000000000000
      0.312500000000     -0.187500000000      0.000000000000
      0.375000000000     -0.187500000000      0.000000000000
      0.437500000000     -0.187500000000      0.000000000000
      0.500000000000     -0.187500000000      0.000000000000
     -0.437500000000     -0.187500000000      0.000000000000
     -0.375000000000     -0.187500000000      0.000000000000
     -0.312500000000     -0.187500000000      0.000000000000
     -0.250000000000     -0.187500000000      0.000000000000
     -0.187500000000     -0.187500000000      0.000000000000
     -0.125000000000     -0.187500000000      0.000000000000
     -0.062500000000     -0.187500000000      0.000000000000
      0.000000000000     -0.125000000000      0.000000000000
      0.062500000000     -0.125000000000      0.000000000000
      0.125000000000     -0.125000000000      0.000000000000
      0.187500000000     -0.125000000000      0.000000000000
      0.250000000000     -0.125000000000      0.000000000000
      0.312500000000     -0.125000000000      0.000000000000
      0.375000000000     -0.125000000000      0.000000000000
      0.437500000000     -0.125000000000      0.000000000000
      0.500000000000     -0.125000000000      0.000000000000
     -0.437500000000     -0.125000000000      0.000000000000
     -0.375000000000     -0.125000000000      0.000000000000
     -0.312500000000     -0.125000000000      0.000000000000
     -0.250000000000     -0.125000000000      0.000000000000
     -0.187500000000     -0.125000000000      0.000000000000
     -0.125000000000     -0.125000000000      0.000000000000
     -0.062500000000     -0.125000000000      0.000000000000
      0.000000000000     -0.062500000000      0.000000000000
      0.062500000000     -0.062500000000      0.000000000000
      0.125000000000     -0.062500000000      0.000000000000
      0.187500000000     -0.062500000000      0.000000000000
      0.250000000000     -0.062500000000      0.000000000000
      0.312500000000     -0.062500000000      0.000000000000
      0.375000000000     -0.062500000000      0.000000000000
      0.437500000000     -0.062500000000      0.000000000000
      0.500000000000     -0.062500000000      0.000000000000
     -0.437500000000     -0.062500000000      0.000000000000
     -0.375000000000     -0.062500000000      0.000000000000
     -0.312500000000     -0.062500000000      0.000000000000
     -0.250000000000     -0.062500000000      0.000000000000
     -0.187500000000     -0.062500000000      0.000000000000
     -0.125000000000     -0.062500000000      0.000000000000
     -0.062500000000     -0.062500000000      0.000000000000
      0.000000000000      0.000000000000      0.062500000000
      0.062500000000      0.000000000000      0.062500000000
      0.125000000000      0.000000000000      0.062500000000
      0.187500000000      0.000000000000      0.062500000000
      0.250000000000      0.000000000000      0.062500000000
      0.312500000000      0.000000000000      0.062500000000
      0.375000000000      0.000000000000      0.062500000000
      0.437500000000      0.000000000000      0.062500000000
      0.500000000000      0.000000000000      0.062500000000
     -0.437500000000      0.000000000000      0.062500000000
     -0.375000000000      0.000000000000      0.062500000000
     -0.312500000000      0.000000000000      0.062500000000
     -0.250000000000      0.000000000000      0.062500000000
     -0.187500000000      0.000000000000      0.062500000000
     -0.125000000000      0.000000000000      0.062500000000
     -0.062500000000      0.000000000000      0.062500000000
      0.000000000000      0.062500000000      0.062500000000
      0.062500000000      0.062500000000      0.062500000000
      0.125000000000      0.062500000000      0.062500000000
      0.187500000000      0.062500000000      0.062500000000
      0.250000000000      0.062500000000      0.062500000000
      0.312500000000      0.062500000000      0.062500000000
      0.375000000000      0.062500000000      0.062500000000
      0.437500000000      0.062500000000      0.062500000000
      0.500000000000      0.062500000000      0.062500000000
     -0.437500000000      0.062500000000      0.062500000000
     -0.375000000000      0.062500000000      0.062500000000
     -0.312500000000      0.062500000000      0.062500000000
     -0.250000000000      0.062500000000      0.062500000000
     -0.187500000000      0.062500000000      0.062500000000
     -0.125000000000      0.062500000000      0.062500000000
     -0.062500000000      0.062500000000      0.062500000000
      0.000000000000      0.125000000000      0.062500000000
      0.062500000000      0.125000000000      0.062500000000
      0.125000000000      0.125000000000      0.062500000000
      0.187500000000      0.125000000000      0.062500000000
      0.250000000000      0.125000000000      0.062500000000
      0.312500000000      0.125000000000      0.062500000000
      0.375000000000      0.125000000000      0.062500000000
      0.437500000000      0.125000000000      0.062500000000
      0.500000000000      0.125000000000      0.062500000000
     -0.437500000000      0.125000000000      0.062500000000
     -0.375000000000      0.125000000000      0.062500000000
     -0.312500000000      0.125000000000      0.062500000000
     -0.250000000000      0.125000000000      0.062500000000
     -0.187500000000      0.125000000000      0.062500000000
     -0.125000000000      0.125000000000      0.062500000000
     -0.062500000000      0.125000000000      0.062500000000
      0.000000000000      0.187500000000      0.062500000000
      0.062500000000      0.187500000000      0.062500000000
      0.125000000000      0.187500000000      0.062500000000
      0.187500000000      0.187500000000      0.062500000000
      0.250000000000      0.187500000000      0.062500000000
      0.312500000000      0.187500000000      0.062500000000
      0.375000000000      0.187500000000      0.062500000000
      0.437500000000      0.187500000000      0.062500000000
      0.500000000000      0.187500000000      0.062500000000
     -0.437500000000      0.187500000000      0.062500000000
     -0.375000000000      0.187500000000      0.062500000000
     -0.312500000000      0.187500000000      0.062500000000
     -0.250000000000      0.187500000000      0.062500000000
     -0.187500000000      0.187500000000      0.062500000000
     -0.125000000000      0.187500000000      0.062500000000
     -0.062500000000      0.187500000000      0.062500000000
      0.000000000000      0.250000000000      0.062500000000
      0.062500000000      0.250000000000      0.062500000000
      0.125000000000      0.250000000000      0.062500000000
      0.187500000000      0.250000000000      0.062500000000
      0.250000000000      0.250000000000      0.062500000000
      0.312500000000      0.250000000000      0.062500000000
      0.375000000000      0.250000000000      0.062500000000
      0.437500000000      0.250000000000      0.062500000000
      0.500000000000      0.250000000000      0.062500000000
     -0.437500000000      0.250000000000      0.062500000000
     -0.375000000000      0.250000000000      0.062500000000
     -0.312500000000      0.250000000000      0.062500000000
     -0.250000000000      0.250000000000      0.062500000000
     -0.187500000000      0.250000000000      0.062500000000
     -0.125000000000      0.250000000000      0.062500000000
     -0.062500000000      0.250000000000      0.062500000000
      0.000000000000      0.312500000000      0.062500000000
      0.062500000000      0.312500000000      0.062500000000
      0.125000000000      0.312500000000      0.062500000000
      0.187500000000      0.312500000000      0.062500000000
      0.250000000000      0.312500000000      0.062500000000
      0.312500000000      0.312500000000      0.062500000000
      0.375000000000      0.312500000000      0.062500000000
      0.437500000000      0.312500000000      0.062500000000
      0.500000000000      0.312500000000      0.062500000000
     -0.437500000000      0.312500000000      0.062500000000
     -0.375000000000      0.312500000000      0.062500000000
     -0.312500000000      0.312500000000      0.062500000000
     -0.250000000000      0.312500000000      0.062500000000
     -0.187500000000      0.312500000000      0.062500000000
     -0.125000000000      0.312500000000      0.062500000000
     -0.062500000000      0.312500000000      0.062500000000
      0.000000000000      0.375000000000      0.062500000000
      0.062500000000      0.375000000000      0.062500000000
      0.125000000000      0.375000000000      0.062500000000
      0.187500000000      0.375000000000      0.062500000000
      0.250000000000      0.375000000000      0.062500000000
      0.312500000000      0.375000000000      0.062500000000
      0.375000000000      0.375000000000      0.062500000000
      0.437500000000      0.375000000000      0.062500000000
      0.500000000000      0.375000000000      0.062500000000
     -0.437500000000      0.375000000000      0.062500000000
     -0.375000000000      0.375000000000      0.062500000000
     -0.312500000000      0.375000000000      0.062500000000
     -0.250000000000      0.375000000000      0.062500000000
     -0.187500000000      0.375000000000      0.062500000000
     -0.125000000000      0.375000000000      0.062500000000
     -0.062500000000      0.375000000000      0.062500000000
      0.000000000000      0.437500000000      0.062500000000
      0.062500000000      0.437500000000      0.062500000000
      0.125000000000      0.437500000000      0.062500000000
      0.187500000000      0.437500000000      0.062500000000
      0.250000000000      0.437500000000      0.062500000000
      0.312500000000      0.437500000000      0.062500000000
      0.375000000000      0.437500000000      0.062500000000
      0.437500000000      0.437500000000      0.062500000000
      0.500000000000      0.437500000000      0.062500000000
     -0.437500000000      0.437500000000      0.062500000000
     -0.375000000000      0.437500000000      0.062500000000
     -0.312500000000      0.437500000000      0.062500000000
     -0.250000000000      0.437500000000      0.062500000000
     -0.187500000000      0.437500000000      0.062500000000
     -0.125000000000      0.437500000000      0.062500000000
     -0.062500000000      0.437500000000      0.062500000000
      0.000000000000      0.500000000000      0.062500000000
      0.062500000000      0.500000000000      0.062500000000
      0.125000000000      0.500000000000      0.062500000000
      0.187500000000      0.500000000000      0.062500000000
      0.250000000000      0.500000000000      0.062500000000
      0.312500000000      0.500000000000      0.062500000000
      0.375000000000      0.500000000000      0.062500000000
      0.437500000000      0.500000000000      0.062500000000
      0.500000000000      0.500000000000      0.062500000000
     -0.437500000000      0.500000000000      0.062500000000
     -0.375000000000      0.500000000000      0.062500000000
     -0.312500000000      0.500000000000      0.062500000000
     -0.250000000000      0.500000000000      0.062500000000
     -0.187500000000      0.500000000000      0.062500000000
     -0.125000000000      0.500000000000      0.062500000000
     -0.062500000000      0.500000000000      0.062500000000
      0.000000000000     -0.437500000000      0.062500000000
      0.062500000000     -0.437500000000      0.062500000000
      0.125000000000     -0.437500000000      0.062500000000
      0.187500000000     -0.437500000000      0.062500000000
      0.250000000000     -0.437500000000      0.062500000000
      0.312500000000     -0.437500000000      0.062500000000
      0.375000000000     -0.437500000000      0.062500000000
      0.437500000000     -0.437500000000      0.062500000000
      0.500000000000     -0.437500000000      0.062500000000
     -0.437500000000     -0.437500000000      0.062500000000
     -0.375000000000     -0.437500000000      0.062500000000
     -0.312500000000     -0.437500000000      0.062500000000
     -0.250000000000     -0.437500000000      0.062500000000
     -0.187500000000     -0.437500000000      0.062500000000
     -0.125000000000     -0.437500000000      0.062500000000
     -0.062500000000     -0.437500000000      0.062500000000
      0.000000000000     -0.375000000000      0.062500000000
      0.062500000000     -0.375000000000      0.062500000000
      0.125000000000     -0.375000000000      0.062500000000
      0.187500000000     -0.375000000000      0.062500000000
      0.250000000000     -0.375000000000      0.062500000000
      0.312500000000     -0.375000000000      0.062500000000
      0.375000000000     -0.375000000000      0.062500000000
      0.437500000000     -0.375000000000      0.062500000000
      0.500000000000     -0.375000000000      0.062500000000
     -0.437500000000     -0.375000000000      0.062500000000
     -0.375000000000     -0.375000000000      0.062500000000
     -0.312500000000     -0.375000000000      0.062500000000
     -0.250000000000     -0.375000000000      0.062500000000
     -0.187500000000     -0.375000000000      0.062500000000
     -0.125000000000     -0.375000000000      0.062500000000
     -0.062500000000     -0.375000000000      0.062500000000
      0.000000000000     -0.312500000000      0.062500000000
      0.062500000000     -0.312500000000      0.062500000000
      0.125000000000     -0.312500000000      0.062500000000
      0.187500000000     -0.312500000000      0.062500000000
      0.250000000000     -0.312500000000      0.062500000000
      0.312500000000     -0.312500000000      0.062500000000
      0.375000000000     -0.312500000000      0.062500000000
      0.437500000000     -0.312500000000      0.062500000000
      0.500000000000     -0.312500000000      0.062500000000
     -0.437500000000     -0.312500000000      0.062500000000
     -0.375000000000     -0.312500000000      0.062500000000
     -0.312500000000     -0.312500000000      0.062500000000
     -0.250000000000     -0.312500000000      0.062500000000
     -0.187500000000     -0.312500000000      0.062500000000
     -0.125000000000     -0.312500000000      0.062500000000
     -0.062500000000     -0.312500000000      0.062500000000
      0.000000000000     -0.250000000000      0.062500000000
      0.062500000000     -0.250000000000      0.062500000000
      0.125000000000     -0.250000000000      0.062500000000
      0.187500000000     -0.250000000000      0.062500000000
      0.250000000000     -0.250000000000      0.062500000000
      0.312500000000     -0.250000000000      0.062500000000
      0.375000000000     -0.250000000000      0.062500000000
      0.437500000000     -0.250000000000      0.062500000000
      0.500000000000     -0.250000000000      0.062500000000
     -0.437500000000     -0.250000000000      0.062500000000
     -0.375000000000     -0.250000000000      0.062500000000
     -0.312500000000     -0.250000000000      0.062500000000
     -0.250000000000     -0.250000000000      0.062500000000
     -0.187500000000     -0.250000000000      0.062500000000
     -0.125000000000     -0.250000000000      0.062500000000
     -0.062500000000     -0.250000000000      0.062500000000
      0.000000000000     -0.187500000000      0.062500000000
      0.062500000000     -0.187500000000      0.062500000000
      0.125000000000     -0.187500000000      0.062500000000
      0.187500000000     -0.187500000000      0.062500000000
      0.250000000000     -0.187500000000      0.062500000000
      0.312500000000     -0.187500000000      0.062500000000
      0.375000000000     -0.187500000000      0.062500000000
      0.437500000000     -0.187500000000      0.062500000000
      0.500000000000     -0.187500000000      0.062500000000
     -0.437500000000     -0.187500000000      0.062500000000
     -0.375000000000     -0.187500000000      0.062500000000
     -0.312500000000     -0.187500000000      0.062500000000
     -0.250000000000     -0.187500000000      0.062500000000
     -0.187500000000     -0.187500000000      0.062500000000
     -0.125000000000     -0.187500000000      0.062500000000
     -0.062500000000     -0.187500000000      0.062500000000
      0.000000000000     -0.125000000000      0.062500000000
      0.062500000000     -0.125000000000      0.062500000000